p edge 250 3120
e 0 8
e 0 13
e 0 14
e 0 25
e 0 47
e 0 49
e 0 66
e 0 73
e 0 85
e 0 86
e 0 87
e 0 105
e 0 129
e 0 142
e 0 160
e 0 185
e 0 203
e 0 210
e 0 213
e 0 219
e 0 244
e 1 3
e 1 4
e 1 15
e 1 16
e 1 20
e 1 25
e 1 27
e 1 42
e 1 46
e 1 80
e 1 84
e 1 94
e 1 107
e 1 112
e 1 119
e 1 124
e 1 146
e 1 147
e 1 150
e 1 166
e 1 172
e 1 174
e 1 217
e 1 224
e 1 233
e 1 234
e 2 12
e 2 18
e 2 20
e 2 23
e 2 35
e 2 38
e 2 41
e 2 59
e 2 65
e 2 106
e 2 115
e 2 120
e 2 127
e 2 135
e 2 148
e 2 150
e 2 159
e 2 160
e 2 164
e 2 174
e 2 210
e 2 211
e 2 216
e 2 232
e 2 249
e 3 10
e 3 25
e 3 55
e 3 80
e 3 107
e 3 136
e 3 163
e 3 169
e 3 174
e 3 177
e 3 196
e 3 198
e 3 207
e 3 213
e 3 219
e 4 11
e 4 29
e 4 35
e 4 39
e 4 70
e 4 73
e 4 100
e 4 102
e 4 104
e 4 110
e 4 115
e 4 117
e 4 125
e 4 135
e 4 138
e 4 153
e 4 156
e 4 158
e 4 160
e 4 167
e 4 187
e 4 189
e 4 203
e 4 233
e 4 236
e 4 242
e 4 245
e 5 20
e 5 30
e 5 43
e 5 57
e 5 58
e 5 65
e 5 72
e 5 74
e 5 121
e 5 129
e 5 138
e 5 139
e 5 147
e 5 149
e 5 154
e 5 157
e 5 162
e 5 167
e 5 171
e 5 185
e 5 190
e 5 199
e 5 200
e 5 201
e 5 206
e 5 207
e 5 214
e 5 217
e 5 222
e 5 237
e 5 238
e 5 243
e 6 9
e 6 10
e 6 16
e 6 27
e 6 50
e 6 52
e 6 60
e 6 68
e 6 97
e 6 112
e 6 129
e 6 151
e 6 164
e 6 186
e 6 188
e 6 202
e 6 206
e 6 212
e 6 226
e 6 231
e 7 12
e 7 15
e 7 33
e 7 57
e 7 74
e 7 91
e 7 103
e 7 107
e 7 110
e 7 118
e 7 144
e 7 145
e 7 162
e 7 166
e 7 215
e 8 13
e 8 21
e 8 28
e 8 33
e 8 45
e 8 51
e 8 61
e 8 62
e 8 77
e 8 81
e 8 110
e 8 113
e 8 124
e 8 128
e 8 156
e 8 182
e 8 185
e 8 189
e 8 220
e 8 224
e 8 231
e 9 18
e 9 30
e 9 34
e 9 35
e 9 71
e 9 74
e 9 80
e 9 84
e 9 88
e 9 106
e 9 117
e 9 120
e 9 121
e 9 123
e 9 125
e 9 186
e 9 188
e 9 192
e 9 206
e 9 213
e 9 215
e 9 218
e 9 225
e 9 241
e 10 16
e 10 18
e 10 21
e 10 25
e 10 34
e 10 54
e 10 68
e 10 69
e 10 77
e 10 93
e 10 100
e 10 108
e 10 110
e 10 116
e 10 119
e 10 134
e 10 141
e 10 145
e 10 164
e 10 175
e 10 178
e 10 183
e 10 205
e 10 216
e 10 233
e 11 27
e 11 31
e 11 34
e 11 40
e 11 53
e 11 71
e 11 74
e 11 81
e 11 82
e 11 98
e 11 99
e 11 104
e 11 105
e 11 116
e 11 117
e 11 137
e 11 167
e 11 169
e 11 173
e 11 203
e 11 204
e 11 207
e 11 209
e 11 228
e 11 230
e 11 237
e 12 24
e 12 41
e 12 43
e 12 65
e 12 115
e 12 147
e 12 150
e 12 153
e 12 154
e 12 155
e 12 169
e 12 182
e 12 209
e 12 225
e 12 231
e 12 235
e 13 24
e 13 46
e 13 56
e 13 70
e 13 79
e 13 83
e 13 110
e 13 133
e 13 134
e 13 141
e 13 144
e 13 161
e 13 162
e 13 172
e 13 178
e 13 183
e 13 202
e 13 203
e 13 211
e 13 232
e 13 247
e 13 248
e 14 16
e 14 18
e 14 36
e 14 38
e 14 40
e 14 51
e 14 54
e 14 84
e 14 94
e 14 106
e 14 107
e 14 110
e 14 135
e 14 137
e 14 143
e 14 144
e 14 146
e 14 173
e 14 188
e 14 196
e 14 204
e 14 227
e 14 231
e 14 245
e 15 18
e 15 23
e 15 27
e 15 33
e 15 34
e 15 51
e 15 65
e 15 79
e 15 87
e 15 92
e 15 107
e 15 129
e 15 143
e 15 145
e 15 148
e 15 151
e 15 165
e 15 168
e 15 171
e 15 183
e 15 187
e 15 188
e 15 194
e 15 199
e 15 204
e 15 223
e 15 226
e 15 247
e 15 249
e 16 30
e 16 51
e 16 52
e 16 58
e 16 75
e 16 77
e 16 86
e 16 101
e 16 113
e 16 127
e 16 130
e 16 137
e 16 139
e 16 140
e 16 142
e 16 151
e 16 163
e 16 182
e 16 214
e 16 226
e 16 238
e 16 245
e 17 22
e 17 23
e 17 32
e 17 35
e 17 38
e 17 50
e 17 51
e 17 59
e 17 60
e 17 74
e 17 84
e 17 86
e 17 94
e 17 102
e 17 111
e 17 122
e 17 136
e 17 137
e 17 138
e 17 140
e 17 151
e 17 166
e 17 175
e 17 185
e 17 204
e 17 205
e 17 218
e 17 224
e 18 25
e 18 29
e 18 97
e 18 102
e 18 116
e 18 121
e 18 129
e 18 145
e 18 148
e 18 169
e 18 203
e 18 244
e 18 245
e 19 26
e 19 31
e 19 46
e 19 53
e 19 82
e 19 90
e 19 98
e 19 99
e 19 116
e 19 120
e 19 151
e 19 152
e 19 158
e 19 162
e 19 171
e 19 183
e 19 189
e 19 211
e 19 223
e 19 225
e 19 226
e 19 236
e 20 27
e 20 28
e 20 31
e 20 37
e 20 45
e 20 46
e 20 48
e 20 58
e 20 60
e 20 72
e 20 93
e 20 100
e 20 101
e 20 104
e 20 116
e 20 128
e 20 132
e 20 136
e 20 138
e 20 141
e 20 161
e 20 182
e 20 208
e 20 217
e 20 237
e 20 238
e 21 42
e 21 62
e 21 75
e 21 82
e 21 90
e 21 97
e 21 100
e 21 112
e 21 118
e 21 119
e 21 124
e 21 134
e 21 164
e 21 196
e 21 208
e 21 218
e 21 243
e 22 23
e 22 27
e 22 28
e 22 35
e 22 54
e 22 61
e 22 64
e 22 67
e 22 74
e 22 83
e 22 103
e 22 105
e 22 106
e 22 108
e 22 126
e 22 128
e 22 131
e 22 135
e 22 145
e 22 156
e 22 169
e 22 171
e 22 172
e 22 181
e 22 200
e 22 207
e 22 214
e 22 222
e 22 236
e 22 244
e 23 32
e 23 34
e 23 44
e 23 47
e 23 61
e 23 113
e 23 117
e 23 118
e 23 124
e 23 128
e 23 135
e 23 147
e 23 186
e 23 190
e 23 192
e 23 213
e 23 220
e 23 235
e 23 245
e 23 246
e 23 247
e 24 26
e 24 33
e 24 36
e 24 50
e 24 55
e 24 56
e 24 64
e 24 74
e 24 79
e 24 95
e 24 109
e 24 114
e 24 119
e 24 130
e 24 145
e 24 146
e 24 154
e 24 158
e 24 165
e 24 168
e 24 171
e 24 186
e 24 202
e 24 210
e 24 224
e 24 237
e 24 240
e 25 31
e 25 37
e 25 47
e 25 49
e 25 60
e 25 72
e 25 83
e 25 93
e 25 99
e 25 100
e 25 105
e 25 120
e 25 123
e 25 131
e 25 139
e 25 144
e 25 205
e 25 213
e 25 226
e 25 235
e 25 246
e 26 32
e 26 37
e 26 38
e 26 44
e 26 46
e 26 59
e 26 61
e 26 64
e 26 82
e 26 94
e 26 99
e 26 119
e 26 145
e 26 152
e 26 168
e 26 177
e 26 194
e 26 197
e 26 214
e 26 223
e 26 236
e 27 78
e 27 98
e 27 100
e 27 117
e 27 140
e 27 148
e 27 153
e 27 158
e 27 162
e 27 166
e 27 208
e 27 213
e 27 217
e 27 222
e 27 226
e 27 227
e 27 233
e 27 242
e 27 249
e 28 41
e 28 43
e 28 47
e 28 78
e 28 89
e 28 90
e 28 101
e 28 104
e 28 139
e 28 172
e 28 203
e 28 208
e 28 216
e 28 224
e 28 229
e 28 242
e 29 46
e 29 74
e 29 96
e 29 112
e 29 117
e 29 120
e 29 122
e 29 127
e 29 129
e 29 157
e 29 178
e 29 180
e 29 183
e 29 188
e 29 249
e 30 31
e 30 32
e 30 42
e 30 47
e 30 50
e 30 54
e 30 72
e 30 77
e 30 82
e 30 99
e 30 104
e 30 114
e 30 124
e 30 126
e 30 142
e 30 153
e 30 178
e 30 209
e 30 216
e 30 230
e 30 246
e 30 247
e 31 50
e 31 70
e 31 79
e 31 95
e 31 96
e 31 98
e 31 110
e 31 119
e 31 121
e 31 126
e 31 131
e 31 135
e 31 142
e 31 143
e 31 155
e 31 156
e 31 158
e 31 169
e 31 177
e 31 200
e 31 209
e 31 220
e 31 238
e 31 241
e 31 244
e 31 247
e 31 248
e 32 47
e 32 48
e 32 62
e 32 77
e 32 88
e 32 103
e 32 106
e 32 113
e 32 119
e 32 134
e 32 149
e 32 151
e 32 184
e 32 194
e 32 205
e 32 217
e 32 243
e 33 34
e 33 54
e 33 58
e 33 66
e 33 68
e 33 80
e 33 116
e 33 120
e 33 130
e 33 131
e 33 136
e 33 139
e 33 141
e 33 143
e 33 147
e 33 150
e 33 151
e 33 157
e 33 194
e 33 198
e 33 202
e 33 220
e 34 39
e 34 43
e 34 55
e 34 60
e 34 70
e 34 71
e 34 75
e 34 93
e 34 111
e 34 114
e 34 128
e 34 140
e 34 151
e 34 160
e 34 162
e 34 165
e 34 166
e 34 169
e 34 171
e 34 179
e 34 181
e 34 191
e 34 207
e 34 208
e 34 213
e 34 216
e 34 228
e 34 243
e 35 50
e 35 63
e 35 70
e 35 72
e 35 74
e 35 82
e 35 97
e 35 98
e 35 101
e 35 107
e 35 123
e 35 127
e 35 129
e 35 148
e 35 154
e 35 159
e 35 180
e 35 181
e 35 211
e 35 219
e 35 228
e 35 242
e 36 41
e 36 49
e 36 57
e 36 62
e 36 74
e 36 77
e 36 86
e 36 102
e 36 108
e 36 113
e 36 120
e 36 121
e 36 134
e 36 135
e 36 136
e 36 165
e 36 166
e 36 186
e 36 196
e 36 197
e 36 211
e 36 219
e 36 221
e 36 230
e 37 78
e 37 80
e 37 87
e 37 94
e 37 96
e 37 102
e 37 107
e 37 112
e 37 119
e 37 126
e 37 135
e 37 144
e 37 165
e 37 167
e 37 169
e 37 173
e 37 185
e 37 242
e 38 48
e 38 55
e 38 64
e 38 87
e 38 88
e 38 95
e 38 101
e 38 112
e 38 116
e 38 121
e 38 130
e 38 139
e 38 142
e 38 143
e 38 148
e 38 162
e 38 164
e 38 173
e 38 184
e 38 188
e 38 194
e 38 206
e 38 212
e 38 217
e 38 218
e 38 219
e 38 230
e 38 245
e 39 43
e 39 44
e 39 49
e 39 58
e 39 61
e 39 62
e 39 84
e 39 85
e 39 90
e 39 94
e 39 98
e 39 100
e 39 125
e 39 128
e 39 133
e 39 148
e 39 154
e 39 177
e 39 180
e 39 208
e 39 211
e 39 221
e 39 227
e 39 230
e 39 240
e 39 243
e 39 245
e 40 45
e 40 49
e 40 62
e 40 75
e 40 81
e 40 85
e 40 90
e 40 93
e 40 94
e 40 99
e 40 100
e 40 116
e 40 117
e 40 153
e 40 180
e 40 188
e 40 197
e 40 200
e 40 201
e 40 204
e 40 212
e 40 218
e 40 221
e 40 223
e 40 231
e 40 233
e 40 236
e 40 240
e 40 242
e 40 243
e 41 46
e 41 50
e 41 64
e 41 66
e 41 68
e 41 77
e 41 82
e 41 106
e 41 107
e 41 116
e 41 138
e 41 151
e 41 163
e 41 171
e 41 181
e 41 190
e 41 197
e 41 213
e 41 216
e 41 224
e 41 226
e 41 241
e 41 249
e 42 58
e 42 60
e 42 62
e 42 63
e 42 66
e 42 71
e 42 75
e 42 81
e 42 91
e 42 105
e 42 127
e 42 128
e 42 156
e 42 159
e 42 163
e 42 167
e 42 182
e 42 199
e 42 223
e 42 231
e 42 237
e 42 247
e 43 63
e 43 79
e 43 82
e 43 84
e 43 85
e 43 87
e 43 100
e 43 108
e 43 121
e 43 129
e 43 130
e 43 159
e 43 163
e 43 168
e 43 176
e 43 182
e 43 196
e 43 200
e 43 211
e 43 233
e 43 242
e 44 51
e 44 76
e 44 94
e 44 102
e 44 104
e 44 108
e 44 110
e 44 112
e 44 115
e 44 130
e 44 138
e 44 148
e 44 161
e 44 169
e 44 182
e 44 183
e 44 191
e 44 207
e 44 216
e 44 219
e 44 228
e 44 247
e 45 52
e 45 55
e 45 58
e 45 60
e 45 61
e 45 81
e 45 93
e 45 95
e 45 97
e 45 123
e 45 148
e 45 149
e 45 167
e 45 168
e 45 187
e 45 190
e 45 192
e 45 194
e 45 195
e 45 225
e 45 230
e 45 235
e 45 247
e 46 51
e 46 54
e 46 61
e 46 66
e 46 93
e 46 124
e 46 134
e 46 151
e 46 153
e 46 157
e 46 170
e 46 171
e 46 175
e 46 176
e 46 177
e 46 197
e 46 201
e 46 230
e 46 239
e 46 240
e 46 242
e 46 244
e 47 56
e 47 59
e 47 62
e 47 73
e 47 78
e 47 88
e 47 90
e 47 101
e 47 127
e 47 128
e 47 165
e 47 167
e 47 172
e 47 196
e 47 199
e 47 205
e 47 206
e 47 218
e 47 239
e 47 248
e 48 50
e 48 53
e 48 77
e 48 79
e 48 89
e 48 91
e 48 112
e 48 121
e 48 145
e 48 157
e 48 162
e 48 165
e 48 173
e 48 174
e 48 183
e 48 196
e 48 207
e 48 217
e 48 221
e 48 241
e 49 54
e 49 56
e 49 64
e 49 79
e 49 94
e 49 98
e 49 109
e 49 116
e 49 136
e 49 140
e 49 160
e 49 166
e 49 174
e 49 176
e 49 181
e 49 191
e 49 197
e 49 211
e 49 213
e 49 214
e 49 216
e 49 223
e 49 238
e 49 241
e 50 73
e 50 104
e 50 106
e 50 113
e 50 115
e 50 137
e 50 144
e 50 145
e 50 147
e 50 148
e 50 159
e 50 162
e 50 163
e 50 165
e 50 177
e 50 203
e 50 210
e 50 211
e 50 222
e 51 55
e 51 75
e 51 82
e 51 85
e 51 93
e 51 97
e 51 102
e 51 138
e 51 144
e 51 176
e 51 180
e 51 184
e 51 188
e 51 199
e 51 200
e 51 213
e 51 223
e 51 229
e 51 236
e 51 238
e 51 239
e 51 249
e 52 57
e 52 64
e 52 67
e 52 88
e 52 90
e 52 99
e 52 109
e 52 113
e 52 116
e 52 118
e 52 162
e 52 163
e 52 165
e 52 169
e 52 178
e 52 205
e 53 58
e 53 65
e 53 90
e 53 98
e 53 131
e 53 136
e 53 138
e 53 155
e 53 158
e 53 162
e 53 167
e 53 191
e 53 205
e 53 208
e 53 210
e 53 218
e 53 226
e 54 70
e 54 77
e 54 88
e 54 90
e 54 96
e 54 100
e 54 107
e 54 114
e 54 117
e 54 118
e 54 126
e 54 134
e 54 135
e 54 137
e 54 156
e 54 181
e 54 194
e 54 203
e 54 204
e 54 205
e 54 226
e 54 235
e 54 239
e 54 244
e 54 248
e 55 67
e 55 68
e 55 81
e 55 87
e 55 102
e 55 114
e 55 116
e 55 119
e 55 126
e 55 127
e 55 131
e 55 133
e 55 134
e 55 137
e 55 145
e 55 160
e 55 161
e 55 175
e 55 180
e 55 192
e 55 214
e 55 222
e 55 224
e 55 234
e 55 236
e 56 58
e 56 102
e 56 106
e 56 110
e 56 129
e 56 132
e 56 135
e 56 140
e 56 144
e 56 145
e 56 148
e 56 186
e 56 188
e 56 190
e 56 203
e 56 217
e 56 218
e 56 225
e 56 240
e 56 249
e 57 60
e 57 63
e 57 67
e 57 69
e 57 70
e 57 83
e 57 90
e 57 93
e 57 95
e 57 98
e 57 116
e 57 130
e 57 134
e 57 135
e 57 171
e 57 176
e 57 177
e 57 178
e 57 189
e 57 195
e 57 205
e 57 213
e 57 225
e 57 234
e 57 236
e 57 245
e 57 249
e 58 121
e 58 126
e 58 136
e 58 139
e 58 154
e 58 181
e 58 184
e 58 225
e 59 60
e 59 70
e 59 72
e 59 73
e 59 85
e 59 86
e 59 88
e 59 89
e 59 124
e 59 139
e 59 141
e 59 142
e 59 144
e 59 145
e 59 154
e 59 164
e 59 170
e 59 177
e 59 188
e 59 193
e 59 197
e 59 202
e 59 209
e 59 214
e 59 218
e 59 222
e 59 240
e 60 66
e 60 72
e 60 83
e 60 152
e 60 153
e 60 155
e 60 182
e 60 193
e 60 197
e 60 200
e 60 209
e 60 210
e 60 223
e 60 242
e 61 79
e 61 81
e 61 84
e 61 111
e 61 114
e 61 119
e 61 134
e 61 146
e 61 156
e 61 159
e 61 170
e 61 173
e 61 209
e 61 212
e 61 220
e 61 226
e 61 230
e 61 234
e 62 65
e 62 69
e 62 78
e 62 82
e 62 96
e 62 107
e 62 113
e 62 115
e 62 118
e 62 121
e 62 122
e 62 138
e 62 143
e 62 147
e 62 149
e 62 170
e 62 173
e 62 176
e 62 177
e 62 182
e 62 199
e 62 200
e 62 206
e 62 207
e 62 219
e 62 220
e 62 221
e 62 224
e 62 230
e 62 243
e 62 244
e 62 249
e 63 68
e 63 86
e 63 90
e 63 106
e 63 107
e 63 110
e 63 120
e 63 126
e 63 139
e 63 146
e 63 164
e 63 174
e 63 178
e 63 188
e 63 196
e 63 228
e 63 240
e 63 241
e 63 243
e 63 247
e 64 74
e 64 85
e 64 91
e 64 96
e 64 99
e 64 126
e 64 146
e 64 150
e 64 168
e 64 182
e 64 216
e 64 231
e 64 244
e 64 247
e 65 96
e 65 105
e 65 118
e 65 123
e 65 127
e 65 148
e 65 165
e 65 197
e 65 229
e 65 237
e 65 239
e 65 240
e 65 244
e 65 247
e 66 67
e 66 75
e 66 89
e 66 118
e 66 125
e 66 143
e 66 149
e 66 155
e 66 157
e 66 173
e 66 174
e 66 176
e 66 179
e 66 183
e 66 197
e 66 211
e 66 220
e 66 244
e 66 247
e 67 70
e 67 78
e 67 79
e 67 85
e 67 88
e 67 107
e 67 109
e 67 120
e 67 125
e 67 130
e 67 141
e 67 157
e 67 158
e 67 172
e 67 174
e 67 185
e 67 212
e 67 215
e 67 228
e 67 245
e 68 87
e 68 88
e 68 122
e 68 128
e 68 134
e 68 136
e 68 151
e 68 155
e 68 156
e 68 172
e 68 191
e 68 192
e 68 193
e 68 211
e 68 217
e 68 227
e 68 228
e 68 242
e 69 75
e 69 110
e 69 114
e 69 117
e 69 140
e 69 146
e 69 154
e 69 165
e 69 166
e 69 175
e 69 176
e 69 180
e 69 185
e 69 200
e 69 206
e 69 222
e 69 236
e 69 242
e 70 71
e 70 77
e 70 80
e 70 86
e 70 127
e 70 147
e 70 150
e 70 151
e 70 153
e 70 169
e 70 189
e 70 202
e 70 207
e 70 211
e 70 216
e 70 222
e 70 242
e 71 92
e 71 97
e 71 100
e 71 101
e 71 103
e 71 107
e 71 113
e 71 122
e 71 136
e 71 158
e 71 162
e 71 196
e 71 198
e 71 207
e 71 209
e 71 212
e 71 214
e 71 232
e 71 234
e 71 243
e 72 91
e 72 107
e 72 113
e 72 132
e 72 140
e 72 142
e 72 149
e 72 151
e 72 154
e 72 193
e 72 196
e 72 205
e 72 210
e 72 216
e 72 232
e 72 245
e 73 85
e 73 88
e 73 96
e 73 101
e 73 114
e 73 119
e 73 124
e 73 138
e 73 141
e 73 172
e 73 183
e 73 186
e 73 226
e 73 233
e 74 79
e 74 116
e 74 117
e 74 123
e 74 147
e 74 169
e 74 174
e 74 176
e 74 177
e 74 178
e 74 184
e 74 211
e 74 221
e 74 225
e 74 230
e 75 113
e 75 121
e 75 125
e 75 148
e 75 163
e 75 166
e 75 171
e 75 185
e 75 188
e 75 191
e 75 207
e 75 210
e 75 227
e 75 229
e 75 233
e 75 244
e 76 130
e 76 147
e 76 150
e 76 170
e 76 188
e 76 210
e 76 214
e 76 217
e 76 241
e 76 247
e 77 104
e 77 108
e 77 126
e 77 131
e 77 132
e 77 144
e 77 148
e 77 151
e 77 184
e 77 193
e 77 196
e 77 197
e 77 209
e 78 80
e 78 97
e 78 98
e 78 106
e 78 120
e 78 127
e 78 140
e 78 141
e 78 155
e 78 162
e 78 171
e 78 175
e 78 182
e 78 204
e 78 206
e 78 227
e 79 96
e 79 102
e 79 111
e 79 113
e 79 126
e 79 157
e 79 161
e 79 167
e 79 172
e 79 175
e 79 180
e 79 187
e 79 210
e 79 227
e 79 230
e 79 242
e 79 245
e 80 94
e 80 98
e 80 111
e 80 131
e 80 157
e 80 200
e 80 208
e 80 212
e 80 215
e 80 217
e 80 239
e 80 248
e 81 103
e 81 106
e 81 111
e 81 112
e 81 125
e 81 140
e 81 166
e 81 169
e 81 184
e 81 195
e 81 230
e 81 248
e 82 85
e 82 90
e 82 91
e 82 97
e 82 99
e 82 103
e 82 111
e 82 119
e 82 144
e 82 151
e 82 153
e 82 181
e 82 184
e 82 188
e 82 218
e 82 227
e 83 88
e 83 92
e 83 115
e 83 119
e 83 136
e 83 159
e 83 174
e 83 184
e 83 199
e 83 214
e 83 215
e 83 216
e 84 85
e 84 87
e 84 90
e 84 100
e 84 105
e 84 106
e 84 114
e 84 141
e 84 142
e 84 165
e 84 166
e 84 168
e 84 171
e 84 175
e 84 183
e 84 199
e 84 205
e 84 213
e 84 221
e 84 229
e 84 243
e 84 249
e 85 94
e 85 104
e 85 107
e 85 121
e 85 125
e 85 127
e 85 133
e 85 135
e 85 136
e 85 139
e 85 172
e 85 176
e 85 186
e 85 189
e 85 193
e 85 213
e 85 221
e 85 223
e 85 232
e 86 108
e 86 110
e 86 111
e 86 136
e 86 155
e 86 156
e 86 171
e 86 178
e 86 179
e 86 186
e 86 201
e 86 208
e 86 234
e 86 237
e 87 90
e 87 103
e 87 107
e 87 115
e 87 117
e 87 123
e 87 135
e 87 137
e 87 151
e 87 155
e 87 156
e 87 157
e 87 173
e 87 181
e 87 205
e 87 207
e 87 214
e 87 216
e 87 237
e 87 240
e 88 94
e 88 102
e 88 108
e 88 110
e 88 113
e 88 121
e 88 125
e 88 133
e 88 135
e 88 158
e 88 168
e 88 169
e 88 187
e 88 195
e 88 197
e 88 209
e 88 223
e 88 227
e 88 242
e 88 245
e 88 247
e 89 94
e 89 98
e 89 100
e 89 107
e 89 115
e 89 127
e 89 133
e 89 139
e 89 141
e 89 143
e 89 145
e 89 162
e 89 170
e 89 185
e 89 187
e 89 209
e 89 228
e 89 231
e 89 233
e 89 245
e 90 92
e 90 94
e 90 111
e 90 112
e 90 125
e 90 130
e 90 140
e 90 191
e 90 203
e 90 218
e 90 229
e 90 236
e 90 241
e 91 112
e 91 147
e 91 151
e 91 154
e 91 159
e 91 176
e 91 189
e 91 196
e 91 204
e 91 217
e 91 221
e 92 100
e 92 110
e 92 128
e 92 129
e 92 132
e 92 134
e 92 140
e 92 146
e 92 167
e 92 168
e 92 170
e 92 185
e 92 188
e 92 204
e 92 238
e 93 112
e 93 149
e 93 180
e 93 191
e 93 197
e 93 198
e 93 214
e 93 217
e 93 222
e 93 227
e 93 238
e 94 97
e 94 104
e 94 116
e 94 135
e 94 142
e 94 173
e 94 177
e 94 195
e 94 215
e 94 245
e 95 98
e 95 105
e 95 113
e 95 133
e 95 137
e 95 148
e 95 156
e 95 166
e 95 171
e 95 185
e 95 195
e 95 209
e 95 226
e 95 243
e 96 102
e 96 121
e 96 123
e 96 127
e 96 134
e 96 135
e 96 137
e 96 141
e 96 160
e 96 166
e 96 167
e 96 174
e 96 176
e 96 178
e 96 181
e 96 183
e 96 189
e 96 190
e 96 205
e 96 213
e 96 232
e 96 245
e 97 109
e 97 110
e 97 112
e 97 114
e 97 122
e 97 130
e 97 133
e 97 155
e 97 160
e 97 169
e 97 191
e 97 194
e 97 196
e 97 203
e 97 207
e 97 213
e 97 228
e 98 100
e 98 128
e 98 147
e 98 148
e 98 166
e 98 167
e 98 170
e 98 184
e 98 187
e 98 210
e 98 213
e 98 220
e 98 227
e 98 233
e 99 111
e 99 119
e 99 120
e 99 129
e 99 142
e 99 143
e 99 144
e 99 150
e 99 152
e 99 161
e 99 166
e 99 184
e 99 197
e 99 209
e 99 240
e 100 152
e 100 166
e 100 176
e 100 177
e 100 193
e 100 195
e 100 196
e 100 211
e 100 218
e 100 220
e 100 225
e 100 234
e 101 111
e 101 131
e 101 138
e 101 151
e 101 162
e 101 190
e 101 193
e 101 207
e 101 210
e 101 219
e 101 235
e 101 249
e 102 116
e 102 119
e 102 134
e 102 152
e 102 167
e 102 172
e 102 187
e 102 219
e 102 239
e 103 108
e 103 109
e 103 115
e 103 129
e 103 143
e 103 145
e 103 146
e 103 174
e 103 184
e 103 185
e 103 187
e 103 189
e 103 190
e 103 191
e 103 198
e 103 203
e 103 206
e 103 220
e 104 109
e 104 120
e 104 121
e 104 132
e 104 135
e 104 144
e 104 149
e 104 168
e 104 170
e 104 190
e 104 195
e 104 204
e 104 216
e 104 220
e 104 223
e 104 230
e 104 232
e 104 241
e 105 115
e 105 139
e 105 151
e 105 169
e 105 173
e 105 187
e 105 199
e 105 203
e 105 221
e 105 222
e 105 237
e 105 244
e 106 114
e 106 120
e 106 170
e 106 171
e 106 177
e 106 194
e 106 200
e 106 210
e 106 215
e 106 223
e 106 230
e 106 247
e 106 248
e 107 116
e 107 120
e 107 123
e 107 127
e 107 145
e 107 147
e 107 159
e 107 163
e 107 170
e 107 173
e 107 175
e 107 187
e 107 213
e 107 215
e 107 222
e 107 224
e 107 225
e 107 230
e 107 249
e 108 116
e 108 120
e 108 127
e 108 155
e 108 167
e 108 171
e 108 174
e 108 183
e 108 191
e 108 200
e 108 204
e 108 217
e 108 220
e 108 224
e 108 231
e 108 244
e 109 111
e 109 116
e 109 125
e 109 127
e 109 129
e 109 133
e 109 141
e 109 144
e 109 165
e 109 168
e 109 188
e 109 192
e 109 193
e 109 226
e 109 238
e 110 111
e 110 119
e 110 126
e 110 145
e 110 176
e 110 241
e 111 121
e 111 122
e 111 126
e 111 143
e 111 144
e 111 176
e 111 195
e 111 202
e 111 216
e 111 219
e 111 226
e 111 231
e 111 238
e 111 245
e 112 118
e 112 124
e 112 150
e 112 156
e 112 183
e 112 188
e 112 203
e 112 204
e 112 206
e 112 219
e 112 231
e 112 236
e 112 241
e 112 245
e 113 123
e 113 134
e 113 156
e 113 169
e 113 186
e 113 188
e 113 194
e 113 204
e 113 212
e 113 227
e 113 228
e 113 237
e 113 238
e 113 241
e 114 116
e 114 124
e 114 130
e 114 149
e 114 158
e 114 171
e 114 184
e 114 188
e 114 225
e 114 239
e 114 243
e 114 249
e 115 121
e 115 123
e 115 133
e 115 155
e 115 164
e 115 168
e 115 171
e 115 180
e 115 185
e 115 198
e 115 200
e 115 201
e 115 225
e 115 240
e 116 121
e 116 141
e 116 149
e 116 171
e 116 179
e 116 212
e 116 223
e 116 237
e 116 238
e 117 135
e 117 143
e 117 146
e 117 154
e 117 169
e 117 182
e 117 194
e 117 195
e 117 197
e 117 200
e 117 209
e 117 217
e 117 227
e 117 239
e 117 241
e 118 121
e 118 131
e 118 140
e 118 148
e 118 155
e 118 158
e 118 166
e 118 185
e 118 186
e 118 195
e 118 199
e 118 214
e 118 221
e 118 240
e 118 247
e 118 249
e 119 120
e 119 123
e 119 137
e 119 141
e 119 154
e 119 157
e 119 168
e 119 177
e 119 185
e 119 188
e 119 189
e 119 193
e 119 201
e 119 223
e 119 239
e 120 122
e 120 123
e 120 144
e 120 151
e 120 152
e 120 154
e 120 155
e 120 157
e 120 170
e 120 171
e 120 180
e 120 212
e 120 242
e 121 129
e 121 133
e 121 144
e 121 175
e 121 184
e 121 199
e 121 207
e 121 212
e 121 234
e 122 129
e 122 135
e 122 143
e 122 145
e 122 152
e 122 159
e 122 163
e 122 168
e 122 175
e 122 176
e 122 181
e 122 186
e 122 203
e 122 244
e 123 149
e 123 150
e 123 153
e 123 156
e 123 162
e 123 177
e 123 186
e 123 195
e 123 206
e 123 220
e 123 234
e 123 235
e 123 238
e 124 125
e 124 133
e 124 153
e 124 156
e 124 184
e 124 187
e 124 191
e 124 202
e 124 218
e 124 220
e 124 229
e 125 128
e 125 153
e 125 184
e 125 187
e 125 193
e 125 216
e 125 219
e 125 228
e 125 245
e 126 144
e 126 149
e 126 150
e 126 152
e 126 155
e 126 156
e 126 165
e 126 169
e 126 183
e 126 188
e 126 200
e 126 243
e 126 244
e 126 248
e 126 249
e 127 134
e 127 146
e 127 151
e 127 175
e 127 176
e 127 185
e 127 187
e 127 199
e 127 202
e 127 211
e 127 213
e 127 214
e 127 215
e 127 219
e 127 231
e 128 132
e 128 137
e 128 149
e 128 156
e 128 160
e 128 162
e 128 212
e 128 236
e 128 238
e 129 130
e 129 138
e 129 146
e 129 163
e 129 182
e 129 190
e 129 196
e 129 201
e 129 205
e 129 227
e 129 228
e 129 229
e 129 230
e 129 234
e 129 242
e 129 244
e 130 136
e 130 139
e 130 151
e 130 157
e 130 172
e 130 174
e 130 176
e 130 196
e 130 201
e 130 205
e 130 218
e 130 244
e 131 134
e 131 148
e 131 149
e 131 156
e 131 176
e 131 191
e 131 201
e 131 217
e 131 226
e 131 227
e 131 231
e 131 233
e 131 239
e 131 240
e 131 249
e 132 142
e 132 147
e 132 155
e 132 173
e 132 182
e 132 197
e 132 204
e 132 208
e 132 212
e 132 230
e 132 231
e 132 233
e 132 248
e 133 151
e 133 169
e 133 179
e 133 184
e 133 188
e 133 198
e 133 205
e 133 206
e 133 207
e 133 223
e 133 224
e 133 237
e 133 238
e 133 239
e 133 242
e 133 244
e 133 248
e 134 157
e 134 173
e 134 174
e 134 188
e 134 207
e 134 215
e 134 223
e 134 249
e 135 141
e 135 149
e 135 164
e 135 165
e 135 173
e 135 175
e 135 177
e 135 181
e 135 187
e 135 189
e 135 194
e 135 211
e 135 214
e 135 218
e 135 229
e 135 235
e 135 241
e 135 243
e 135 245
e 136 145
e 136 147
e 136 148
e 136 152
e 136 167
e 136 175
e 136 178
e 136 180
e 136 199
e 136 207
e 136 210
e 136 221
e 136 225
e 136 242
e 136 243
e 137 142
e 137 146
e 137 162
e 137 167
e 137 171
e 137 197
e 137 201
e 137 221
e 137 223
e 137 227
e 137 232
e 138 159
e 138 168
e 138 181
e 138 184
e 138 198
e 138 220
e 138 227
e 138 242
e 139 148
e 139 156
e 139 170
e 139 187
e 139 222
e 139 224
e 139 233
e 140 158
e 140 180
e 140 181
e 140 197
e 140 228
e 140 245
e 140 249
e 141 150
e 141 151
e 141 167
e 141 181
e 141 189
e 141 196
e 141 203
e 141 218
e 141 228
e 141 245
e 142 148
e 142 152
e 142 158
e 142 161
e 142 167
e 142 183
e 142 189
e 142 192
e 142 199
e 142 203
e 142 204
e 142 212
e 142 229
e 142 240
e 142 247
e 143 151
e 143 155
e 143 185
e 143 216
e 143 218
e 143 228
e 143 235
e 143 246
e 144 159
e 144 166
e 144 171
e 144 182
e 144 195
e 144 237
e 144 244
e 145 157
e 145 158
e 145 173
e 145 180
e 145 184
e 145 192
e 145 194
e 145 203
e 145 211
e 145 212
e 145 216
e 145 218
e 145 224
e 145 242
e 145 244
e 146 155
e 146 163
e 146 184
e 146 189
e 146 211
e 146 234
e 146 240
e 146 244
e 147 176
e 147 178
e 147 180
e 147 190
e 147 196
e 147 198
e 147 207
e 147 208
e 147 214
e 147 217
e 147 231
e 147 242
e 148 156
e 148 158
e 148 161
e 148 170
e 148 180
e 148 191
e 148 196
e 148 225
e 148 235
e 149 151
e 149 163
e 149 166
e 149 180
e 149 201
e 149 209
e 149 210
e 149 215
e 149 218
e 149 227
e 149 229
e 149 240
e 149 241
e 150 219
e 150 240
e 151 155
e 151 170
e 151 188
e 151 195
e 151 207
e 151 208
e 151 212
e 151 234
e 152 166
e 152 175
e 152 192
e 152 206
e 152 210
e 152 215
e 152 219
e 152 230
e 152 235
e 152 236
e 152 249
e 153 169
e 153 171
e 153 174
e 153 216
e 153 217
e 153 221
e 153 225
e 153 241
e 153 244
e 154 163
e 154 167
e 154 176
e 154 185
e 154 187
e 154 197
e 154 203
e 154 207
e 154 216
e 154 221
e 154 241
e 155 159
e 155 160
e 155 165
e 155 183
e 155 192
e 155 208
e 155 210
e 155 214
e 155 215
e 155 218
e 155 220
e 155 222
e 155 241
e 156 163
e 156 185
e 156 186
e 156 229
e 156 233
e 156 236
e 156 243
e 157 192
e 157 206
e 157 213
e 157 228
e 157 247
e 158 160
e 158 166
e 158 168
e 158 177
e 158 179
e 158 185
e 158 189
e 158 206
e 158 207
e 158 208
e 158 217
e 158 224
e 158 227
e 158 232
e 158 234
e 159 165
e 159 169
e 159 178
e 159 179
e 159 198
e 159 205
e 159 207
e 159 208
e 159 221
e 159 244
e 160 170
e 160 174
e 160 191
e 160 193
e 160 196
e 160 198
e 160 203
e 160 213
e 160 226
e 160 232
e 160 237
e 161 178
e 161 193
e 161 225
e 161 227
e 161 236
e 161 245
e 161 246
e 161 248
e 161 249
e 162 164
e 162 173
e 162 174
e 162 189
e 162 191
e 162 206
e 162 211
e 162 215
e 162 224
e 162 249
e 163 190
e 163 199
e 163 220
e 164 167
e 164 173
e 164 192
e 164 206
e 164 214
e 164 226
e 164 228
e 164 230
e 164 247
e 165 166
e 165 169
e 165 176
e 165 189
e 165 202
e 165 213
e 165 223
e 165 233
e 165 240
e 165 247
e 166 169
e 166 185
e 166 190
e 166 194
e 166 203
e 166 204
e 166 224
e 166 228
e 166 230
e 166 248
e 167 174
e 167 192
e 167 198
e 167 199
e 167 209
e 167 215
e 167 219
e 167 226
e 167 227
e 167 236
e 168 175
e 168 195
e 168 202
e 168 208
e 168 215
e 168 235
e 168 246
e 169 179
e 169 194
e 169 198
e 169 216
e 169 220
e 169 222
e 169 242
e 170 172
e 170 189
e 170 201
e 170 203
e 170 204
e 170 207
e 170 220
e 170 221
e 170 226
e 170 227
e 170 240
e 170 242
e 170 245
e 171 176
e 171 198
e 171 199
e 171 203
e 171 207
e 171 214
e 171 216
e 171 230
e 171 233
e 171 239
e 171 240
e 171 245
e 171 249
e 172 183
e 172 197
e 172 203
e 172 205
e 172 215
e 172 218
e 172 227
e 172 246
e 173 184
e 173 190
e 173 193
e 173 199
e 173 205
e 173 229
e 173 243
e 174 178
e 174 197
e 174 198
e 174 203
e 174 207
e 174 219
e 174 229
e 174 242
e 175 179
e 175 185
e 175 207
e 175 220
e 175 233
e 175 236
e 175 247
e 176 180
e 176 181
e 176 188
e 176 190
e 176 210
e 176 215
e 176 221
e 176 233
e 176 240
e 176 242
e 177 200
e 177 207
e 177 241
e 177 242
e 178 180
e 178 199
e 178 203
e 178 209
e 178 223
e 178 230
e 178 233
e 179 184
e 179 225
e 180 182
e 180 188
e 180 201
e 180 215
e 181 191
e 181 199
e 181 223
e 181 230
e 181 231
e 181 244
e 182 237
e 182 240
e 183 190
e 183 206
e 183 230
e 184 185
e 184 188
e 184 197
e 184 202
e 184 215
e 184 219
e 184 227
e 184 238
e 184 248
e 185 193
e 185 207
e 185 240
e 186 189
e 186 190
e 186 202
e 186 203
e 186 204
e 186 210
e 186 213
e 186 217
e 186 227
e 186 229
e 186 230
e 186 239
e 186 247
e 187 191
e 187 201
e 187 222
e 187 226
e 187 228
e 187 230
e 188 191
e 188 194
e 188 197
e 188 205
e 188 226
e 188 230
e 188 238
e 188 240
e 189 193
e 189 210
e 189 222
e 189 229
e 190 192
e 190 196
e 190 198
e 190 201
e 190 217
e 190 219
e 190 224
e 190 232
e 190 234
e 191 196
e 191 202
e 191 208
e 191 216
e 191 223
e 191 231
e 191 234
e 191 245
e 192 210
e 192 216
e 192 231
e 192 234
e 192 238
e 192 249
e 193 207
e 193 240
e 193 243
e 194 213
e 194 216
e 194 221
e 194 229
e 194 239
e 194 249
e 195 204
e 195 212
e 195 214
e 195 222
e 195 242
e 195 244
e 196 200
e 196 211
e 196 212
e 196 213
e 196 226
e 196 228
e 196 246
e 197 198
e 197 213
e 197 224
e 197 233
e 197 239
e 197 245
e 197 249
e 198 208
e 198 247
e 199 201
e 199 233
e 199 236
e 199 242
e 200 204
e 200 210
e 200 233
e 200 235
e 200 244
e 201 221
e 201 222
e 201 224
e 201 239
e 201 243
e 201 247
e 201 248
e 202 210
e 202 211
e 202 218
e 202 239
e 202 241
e 203 204
e 203 225
e 203 227
e 203 233
e 203 237
e 203 248
e 204 215
e 204 225
e 204 238
e 204 242
e 205 221
e 205 225
e 205 232
e 205 239
e 206 223
e 206 230
e 206 232
e 206 241
e 206 245
e 207 208
e 207 210
e 207 214
e 207 222
e 207 224
e 207 228
e 207 233
e 207 249
e 208 220
e 208 231
e 208 236
e 208 240
e 209 210
e 209 213
e 209 216
e 209 220
e 209 239
e 209 242
e 210 227
e 210 248
e 211 218
e 211 238
e 212 215
e 212 234
e 212 240
e 212 245
e 212 249
e 213 219
e 213 234
e 213 239
e 214 242
e 214 244
e 215 219
e 215 233
e 216 219
e 217 226
e 217 232
e 217 238
e 217 244
e 217 247
e 217 248
e 218 221
e 218 222
e 218 227
e 218 230
e 218 238
e 218 240
e 219 224
e 219 228
e 219 234
e 219 243
e 219 244
e 219 247
e 220 231
e 220 236
e 220 243
e 220 246
e 221 223
e 221 228
e 221 247
e 222 228
e 222 239
e 222 241
e 222 248
e 222 249
e 223 229
e 223 234
e 223 244
e 224 227
e 225 238
e 225 241
e 226 232
e 226 235
e 226 237
e 226 246
e 227 244
e 228 232
e 228 233
e 228 241
e 228 244
e 229 236
e 229 245
e 230 234
e 230 246
e 231 241
e 232 249
e 233 242
e 233 246
e 234 235
e 234 249
e 235 238
e 235 249
e 237 245
e 237 247
e 239 246
e 239 248
e 240 242
e 242 245
e 242 248
e 243 248
e 245 249
